;; Original file: term_403.smt2
(set-logic HORN)
(declare-fun starexecinv1 (Int Int Int Int) Bool)

(assert (forall ((|gh0prime| Int)
         (|XXX0prime| Int)
         (|XXX1prime| Int)
         (|gh1prime| Int))
  (let ((a!1 (> |gh0prime| (* (+ 0 (- 1)) |XXX0prime|)))
        (a!2 (> |gh0prime| (* (+ 0 (- 1)) |XXX1prime|)))
        (a!3 (> |gh1prime| (* (+ 0 (- 1)) |XXX0prime|)))
        (a!4 (> |gh1prime| (* (+ 0 (- 1)) |XXX1prime|))))
    (=> (and true
             (> |gh0prime| |XXX0prime|)
             (> |gh0prime| |XXX1prime|)
             a!1
             a!2
             (> |gh1prime| |XXX0prime|)
             (> |gh1prime| |XXX1prime|)
             a!3
             a!4)
        (starexecinv1 |XXX0prime| |XXX1prime| |gh0prime| |gh1prime|)))))
(assert (forall ((|XXX0| Int)
         (|XXX1| Int)
         (gh0 Int)
         (gh1 Int)
         (|XXX1prime| Int)
         (|XXX0prime| Int)
         (|gh1prime| Int)
         (|gh0prime| Int))
  (let ((a!1 (= |XXX0prime|
                (- (ite (> |XXX0| |XXX1|) |XXX1| |XXX0|)
                   (+ 0 1))))
        (a!2 (= |XXX1prime|
                (- (ite (> |XXX0| |XXX1|) |XXX1| |XXX0|)
                   (+ 0 1))))
        (a!4 (and (= |gh1prime| (- gh1 (+ 0 1)))
                  (> gh1 (+ 0 0))
                  (= |gh0prime| gh0)))
        (a!5 (> |gh1prime| (* (+ 0 (- 1)) |XXX0prime|)))
        (a!6 (> |gh1prime| (* (+ 0 (- 1)) |XXX1prime|))))
  (let ((a!3 (or (and (= |XXX1prime| (+ |XXX0| |XXX1|)) a!1)
                 (and (= |XXX0prime| (+ |XXX0| |XXX1|)) a!2)))
        (a!7 (and (= |gh0prime| (- gh0 (+ 0 1)))
                  (> |gh1prime| |XXX0prime|)
                  (> |gh1prime| |XXX1prime|)
                  a!5
                  a!6
                  (<= gh1 (+ 0 0)))))
    (=> (and (starexecinv1 |XXX0| |XXX1| gh0 gh1)
             (> |XXX0| (+ 0 0))
             (> |XXX1| (+ 0 0))
             a!3
             (or a!4 a!7)
             true)
        (starexecinv1 |XXX0prime| |XXX1prime| |gh0prime| |gh1prime|))))))
(assert (forall ((|XXX0| Int) (|XXX1| Int) (gh0 Int) (gh1 Int) )
  (=> (and (starexecinv1 |XXX0| |XXX1| gh0 gh1)
           (> |XXX0| (+ 0 0))
           (> |XXX1| (+ 0 0))
           (< gh0 (+ 0 0))
           true)
      false)))
(check-sat)
